12
0 272 62 382 124 239 96 83 211 96 329 54
272 0 248 80 223 340 367 384 244 335 83 226
62 248 0 136 223 168 61 248 200 363 250 331
382 80 136 0 173 136 94 164 12 384 39 212
124 223 223 173 0 266 198 157 53 192 268 226
239 340 168 136 266 0 162 79 71 387 243 387
96 367 61 94 198 162 0 178 82 56 269 193
83 384 248 164 157 79 178 0 277 230 262 28
211 244 200 12 53 71 82 277 0 303 342 230
96 335 363 384 192 387 56 230 303 0 165 258
329 83 250 39 268 243 269 262 342 165 0 342
54 226 331 212 226 387 193 28 230 258 342 0